100
30
32
14
23
31
23
17
5
21
32
11
31
4
4
6
14
1
10
21
19
20
26
13
7
9
17
32
9
16
10
32
10
6
31
14
10
31
7
7
8
2
31
16
6
32
21
31
6
7
16
19
6
4
8
9
31
32
24
26
32
8
2
2
32
10
24
22
6
2
25
13
7
13
21
4
8
5
32
8
19
10
5
12
6
32
32
16
31
12
31
22
7
3
19
7
13
2
11
12
8
5